109480
46, 22, 13, 14, 10, 65, 5, 44, 82, 74, 58, 77, 67, 76, 62, 80, 26, 36, 66, 71, 9, 17, 27, 51, 30, 75, 40, 11, 33, 16, 72, 81, 47, 49, 34, 3, 12, 23, 42, 70, 35, 43, 60, 56, 7, 32, 57, 2, 38, 31, 55, 20, 6, 83, 63, 39, 52, 41, 78, 69, 25, 15, 61, 79, 28, 8, 68, 59, 53, 4, 50, 18, 37, 73, 29, 1, 64, 45, 54, 21, 48, 24, 19
